3976212223661912221506,8,1,2,02,12,1,2,010,7,1,2,05,13,1,2,03,14,1,2,01,15,1,2,03,10,1,2,06,8,1,2,010,15,1,2,05,12,1,2,05,4,1,2,011,6,1,2,015,14,1,2,014,4,1,2,06,4,1,2,011,7,1,2,06,3,1,2,05,10,1,2,04,14,1,2,09,8,1,2,02,4,1,2,04,12,1,2,02,15,1,2,01,6,1,2,03,1,1,2,014,14,1,2,05,14,1,2,014,1,1,2,07,6,1,2,014,8,1,2,014,8,1,2,03,10,1,2,014,3,1,2,013,4,1,2,014,1,1,2,010,14,1,2,05,8,1,2,04,5,1,2,09,8,1,2,012,8,1,2,012,10,1,2,09,12,1,2,013,3,1,2,04,14,1,2,07,15,1,2,07,7,1,2,04,3,1,2,09,9,1,2,011,11,1,2,014,2,1,2,0